50, 557
3, 3
20, 20
13, 13
30, 30
38, 38
30, 30
44, 44
23, 23
19, 19
19, 19
2, 2
7, 7
15, 15
40, 40
24, 24
4, 4
1, 1
26, 26
35, 35
9, 9
40, 40
8, 8
3, 3
15, 15
13, 13
40, 40
9, 9
49, 49
18, 18
22, 22
36, 36
12, 12
15, 15
21, 21
39, 39
43, 43
50, 50
9, 9
17, 17
49, 49
19, 19
3, 3
49, 49
26, 26
12, 12
19, 19
10, 10
27, 27
21, 21
18, 18
